62 71 
35 96 
99 67 
54 31 
60 34 
37 61 
66 95 
52 43 
65 82 
94 65 
45 45 
50 10 
78 33 
42 8 
51 38 
83 13 
9 19 
9 8 
86 15 
91 46 
49 28 
60 15 
24 12 
11 41 
47 57 
7 92 
54 9 
2 32 
95 96 
92 46 
35 76 
11 96 
47 20 
57 33 
87 48 
31 89 
29 91 
4 5 
56 67 
98 3 
24 5 
47 78 
67 1 
63 62 
98 55 
8 85 
83 71 
33 30 
43 90 
15 30 
